153 47 6 194 173 85 86 16 149 73 96 174 64 121 
20 135 130 162 160 158 119 161 131 95 93 
128 38 74 108 123 84 1 2 122 63 48 
41 57 43 3 68 44 13 76 71 
199 143 29 22 189 33 97 30 24 
100 12 53 151 28 126 36 66 166 117 157 
140 147 98 111 115 11 113 105 60 150 82 
182 165 177 109 112 129 195 181 120 77 
88 46 138 83 91 55 114 89 92 187 
142 37 59 72 110 49 106 70 61 39 26 
132 163 42 200 62 116 178 196 31 27 15 
54 155 65 21 133 167 184 78 141 185 10 191 
172 197 5 159 134 58 137 146 19 67 175 
152 40 56 23 52 101 139 17 144 9 179 
154 169 190 136 127 87 99 125 107 69 8 34 
4 14 180 148 198 145 80 183 102 170 193 25 104 
35 164 186 79 124 103 75 
118 176 192 50 81 
45 168 90 
156 7 18 51 
171 
94 32 
188 

